n = 21;
k = 2;
roles = [
{f, g},
{m, f},
{f, d},
{f, g},
{m, g},
{g, m},
{m, g},
{g, m},
{d, f},
{g, m},
{g, f},
{f, d},
{g, f},
{g, m},
{d, g},
{m, g},
{m, g},
{m, d},
{d, f},
{m, d},
{m, f}
];
num_pairs = 2;
player1 = [8, 4];
player2 = [11, 2];
